54284
19, 44, 38, 8, 32, 41, 13, 5, 35, 24, 50, 20, 7, 37, 51, 40, 43, 3, 6, 28, 55, 26, 54, 47, 30, 4, 18, 12, 9, 14, 2, 52, 25, 31, 11, 45, 42, 33, 27, 1, 36, 15, 16, 39, 46, 29, 22, 10, 34, 53, 23, 21, 17, 48, 49
